Data path: /scratch/opt/lxu/CFLG/benchmarks/tree_A
Instance: treeA.200.10
Result path: /scratch/opt/lxu/CFLG/results/tree_A
Solver: Gurobi
Time limit: 7200
Formulation: LEFPAD
Cover: Large
julia --project=. src/main.jl /scratch/opt/lxu/CFLG/benchmarks/tree_A treeA.200.10 /scratch/opt/lxu/CFLG/results/tree_A Gurobi 7200 LEFPAD Large
The latest version of Julia in the `release` channel is 1.11.5+0.x64.linux.gnu. You currently have `1.11.4+0.x64.linux.gnu` installed. Run:

  juliaup update

in your terminal shell to install Julia 1.11.5+0.x64.linux.gnu and update the `release` channel to that version.
/scratch/opt/lxu/CFLG/benchmarks/tree_A Gurobi 7200.0 /scratch/opt/lxu/CFLG/results/tree_A treeA.200.10 LEFPAD Large
/scratch/opt/lxu/CFLG/benchmarks/tree_A/treeA.200.10

 read graph
data loaded

problem_graph/original graph: node: 200/200 edge: 209/209 dlt: 3.007579533011168 break_avg_len: 1.503789766505584 break_max_len: 1.984402562727856Vbar/V, Ebar/E(71, 200, 80, 209)
(Dict{Int64, Bool}(195 => 1, 179 => 1, 60 => 1, 12 => 0, 24 => 1, 23 => 1, 41 => 1, 117 => 0, 197 => 1, 69 => 1, 68 => 1, 98 => 1, 175 => 1, 190 => 1, 166 => 0, 164 => 0, 196 => 0, 130 => 0, 185 => 1, 109 => 1, 51 => 0, 29 => 1, 161 => 0, 76 => 1, 40 => 1, 63 => 1, 21 => 1, 88 => 1, 42 => 1, 144 => 0, 165 => 0, 142 => 1), Dict(195 => 2.793314515060411, 179 => 1.175902993777421, 60 => 1.419405473999534, 12 => 1.9515381596449393, 24 => 2.200021570772514, 23 => 1.5077076793680129, 41 => 1.686988686054236, 117 => 0.8372378255029402, 197 => 0.0849892066665483, 69 => 1.4830716263910868, 68 => 1.408212360565937, 98 => 1.0205248025787674, 175 => 2.1875936647235386, 190 => 1.194252631963547, 166 => 0.18387403113938827, 164 => 0.2165055655984336, 196 => 0.5069556050282631, 130 => 1.3067778523234312, 185 => 0.46069061654212495, 109 => 1.048904310344025, 51 => 0.6394282895138454, 29 => 1.9798796580740607, 161 => 0.2251439652843965, 76 => 1.5755440301048642, 40 => 1.8277926361901553, 63 => 1.6205262976153938, 21 => 2.8905380780769594, 88 => 1.0263639234881574, 42 => 2.2987543535037767, 144 => 0.07110899974696183, 165 => 2.1474735881502647, 142 => 1.2422895418749227))Set parameter TokenServer to value "solice01.zib.de"
Set parameter Threads to value 1
Set parameter OutputFlag to value 1
Gurobi Optimizer version 12.0.1 build v12.0.1rc0 (linux64 - "Debian GNU/Linux 12 (bookworm)")

CPU model: Intel(R) Xeon(R) Gold 5122 CPU @ 3.60GHz, instruction set [SSE2|AVX|AVX2|AVX512]
Thread count: 8 physical cores, 16 logical processors, using up to 1 threads

Non-default parameters:
Threads  1

Optimize a model with 215 rows, 336 columns and 560 nonzeros
Model fingerprint: 0x9897acdd
Coefficient statistics:
  Matrix range     [1e+00, 1e+00]
  Objective range  [1e+00, 1e+00]
  Bounds range     [1e+00, 1e+00]
  RHS range        [1e+00, 1e+00]
Presolve removed 215 rows and 336 columns
Presolve time: 0.00s
Presolve: All rows and columns removed
Iteration    Objective       Primal Inf.    Dual Inf.      Time
       0    3.2000000e+01   0.000000e+00   0.000000e+00      0s

Solved in 0 iterations and 0.00 seconds (0.00 work units)
Optimal objective  3.200000000e+01

User-callback calls 35, time in user-callback 0.01 sec
elapsed CPU time: 1.803575 seconds
Set parameter TokenServer to value "solice01.zib.de"
Set parameter Threads to value 1
Set parameter OutputFlag to value 1
Set parameter MIPGap to value 0.0001
Set parameter TimeLimit to value 7198.196425

 more cuts: false 3.007579533011168 false
is_attach:trueformulation:LEFPAD0 112 0

 model loaded

Min ye[1] + ye[2] + ye[3] + ye[4] + ye[5] + ye[6] + ye[7] + ye[8] + ye[9] + ye[10] + ye[11] + ye[12] + ye[13] + ye[14] + ye[15] + ye[16] + ye[17] + ye[18] + ye[19] + ye[20] + ye[21] + ye[22] + ye[23] + ye[24] + ye[25] + ye[26] + ye[27] + ye[28] + ye[29] + ye[30] + [[...123 terms omitted...]] + yv[74] + yv[75] + yv[76] + yv[77] + yv[78] + yv[79] + yv[80] + yv[81] + yv[82] + yv[83] + yv[84] + yv[85] + yv[86] + yv[87] + yv[88] + yv[89] + yv[90] + yv[91] + yv[92] + yv[93] + yv[94] + yv[95] + yv[96] + yv[97] + yv[98] + yv[99] + yv[100] + yv[101] + yv[102] + yv[103] + 25
Subject to
 q[1,a] ≥ 0
 q[2,a] ≥ 0
 q[3,a] ≥ 0
 q[4,a] ≥ 0
 q[5,a] ≥ 0
 q[6,a] ≥ 0
 q[7,a] ≥ 0
 q[8,a] ≥ 0
 q[9,a] ≥ 0
 q[10,a] ≥ 0
 q[11,a] ≥ 0
 q[12,a] ≥ 0
 q[13,a] ≥ 0
 q[14,a] ≥ 0
 q[15,a] ≥ 0
 q[16,a] ≥ 0
 q[17,a] ≥ 0
 q[18,a] ≥ 0
 q[19,a] ≥ 0
 q[20,a] ≥ 0
 q[21,a] ≥ 0
 q[22,a] ≥ 0
 q[23,a] ≥ 0
 q[24,a] ≥ 0
 q[25,a] ≥ 0
 q[26,a] ≥ 0
 q[27,a] ≥ 0
 q[28,a] ≥ 0
 q[29,a] ≥ 0
 q[30,a] ≥ 0
 q[31,a] ≥ 0
 q[32,a] ≥ 0
 q[33,a] ≥ 0
 q[34,a] ≥ 0
 q[35,a] ≥ 0
 q[36,a] ≥ 0
 q[37,a] ≥ 0
 q[38,a] ≥ 0
 q[39,a] ≥ 0
 q[40,a] ≥ 0
 q[41,a] ≥ 0
 q[42,a] ≥ 0
 q[43,a] ≥ 0
 q[44,a] ≥ 0
 q[45,a] ≥ 0
 q[46,a] ≥ 0
 q[47,a] ≥ 0
 q[48,a] ≥ 0
 q[49,a] ≥ 0
 q[50,a] ≥ 0
[[...7972 constraints skipped...]]
 ye[95] = 1
 ye[96] = 0
 ye[97] = 0
 ye[98] = 1
 ye[99] = 0
 ye[100] = 0
 ye[101] = 0
 ye[102] = 1
 ye[103] = 0
 ye[104] = 0
 ye[105] = 0
 ye[106] = 0
 ye[107] = 0
 ye[108] = 1
 ye[109] = 1
 ye[110] = 0
 ye[111] = 1
 ye[112] = 0
 q[81,a] = 0
 q[82,a] = 2.1703417075082276
 q[83,a] = 0
 q[84,a] = 2.7910739674127343
 q[85,a] = 2.500623927982905
 q[86,a] = 0
 q[87,a] = 0
 q[88,a] = 0
 q[89,a] = 1.0560413733662286
 q[90,a] = 0
 q[91,a] = 0
 q[92,a] = 0
 q[93,a] = 0
 q[94,a] = 0
 q[95,a] = 1.7008016806877366
 q[96,a] = 0
 q[97,a] = 0
 q[98,a] = 2.936470533264206
 q[99,a] = 0
 q[100,a] = 0
 q[101,a] = 0
 q[102,a] = 2.7824355677267714
 q[103,a] = 0
 q[104,a] = 0
 q[105,a] = 0
 q[106,a] = 0
 q[107,a] = 0
 q[108,a] = 2.8237055018717796
 q[109,a] = 2.3681512434973224
 q[110,a] = 0
 q[111,a] = 0.8601059448609032
 q[112,a] = 0
Gurobi Optimizer version 12.0.1 build v12.0.1rc0 (linux64 - "Debian GNU/Linux 12 (bookworm)")

CPU model: Intel(R) Xeon(R) Gold 5122 CPU @ 3.60GHz, instruction set [SSE2|AVX|AVX2|AVX512]
Thread count: 8 physical cores, 16 logical processors, using up to 1 threads

Non-default parameters:
TimeLimit  7198.196425
Threads  1

Optimize a model with 3943 rows, 2787 columns and 10921 nonzeros
Model fingerprint: 0x3317cc93
Variable types: 1342 continuous, 1445 integer (1445 binary)
Coefficient statistics:
  Matrix range     [6e-03, 3e+00]
  Objective range  [1e+00, 1e+00]
  Bounds range     [8e-02, 3e+00]
  RHS range        [1e-06, 3e+00]
Presolve removed 1904 rows and 1173 columns
Presolve time: 0.05s
Presolved: 2039 rows, 1614 columns, 6342 nonzeros
Variable types: 817 continuous, 797 integer (797 binary)
Found heuristic solution: objective 105.0000000
Found heuristic solution: objective 104.0000000

Root relaxation: objective 3.440978e+01, 1322 iterations, 0.02 seconds (0.02 work units)

    Nodes    |    Current Node    |     Objective Bounds      |     Work
 Expl Unexpl |  Obj  Depth IntInf | Incumbent    BestBd   Gap | It/Node Time

     0     0   34.40978    0  240  104.00000   34.40978  66.9%     -    0s
H    0     0                      86.0000000   34.40978  60.0%     -    0s
H    0     0                      84.0000000   34.40978  59.0%     -    0s
H    0     0                      76.0000000   34.40978  54.7%     -    0s
H    0     0                      75.0000000   34.40978  54.1%     -    0s
     0     0   37.14328    0  241   75.00000   37.14328  50.5%     -    0s
H    0     0                      66.0000000   37.21361  43.6%     -    0s
H    0     0                      62.0000000   37.21361  40.0%     -    0s
H    0     0                      59.0000000   37.21361  36.9%     -    0s
     0     0   37.21718    0  266   59.00000   37.21718  36.9%     -    0s
     0     0   37.21924    0  256   59.00000   37.21924  36.9%     -    0s
     0     0   37.22960    0  236   59.00000   37.22960  36.9%     -    0s
     0     0   37.23039    0  253   59.00000   37.23039  36.9%     -    0s
     0     0   38.37488    0  255   59.00000   38.37488  35.0%     -    0s
     0     0   38.40877    0  246   59.00000   38.40877  34.9%     -    0s
     0     0   38.41342    0  261   59.00000   38.41342  34.9%     -    0s
H    0     0                      58.0000000   38.41687  33.8%     -    0s
H    0     0                      57.0000000   38.41687  32.6%     -    0s
     0     0   38.51738    0  281   57.00000   38.51738  32.4%     -    0s
     0     0   38.53225    0  275   57.00000   38.53225  32.4%     -    0s
     0     0   38.53225    0  278   57.00000   38.53225  32.4%     -    0s
     0     0   39.77491    0  257   57.00000   39.77491  30.2%     -    0s
     0     0   39.78743    0  255   57.00000   39.78743  30.2%     -    0s
H    0     0                      53.0000000   39.79526  24.9%     -    0s
     0     0   39.86954    0  264   53.00000   39.86954  24.8%     -    0s
     0     0   39.87737    0  275   53.00000   39.87737  24.8%     -    0s
     0     0   39.87740    0  275   53.00000   39.87740  24.8%     -    0s
     0     0   40.13187    0  185   53.00000   40.13187  24.3%     -    0s
H    0     0                      52.0000000   40.13187  22.8%     -    0s
H    0     0                      51.0000000   40.13187  21.3%     -    0s
     0     0   40.15477    0  226   51.00000   40.15477  21.3%     -    0s
     0     0   40.15605    0  220   51.00000   40.15605  21.3%     -    0s
     0     0   40.16194    0  206   51.00000   40.16194  21.3%     -    0s
     0     0   40.16376    0  240   51.00000   40.16376  21.2%     -    0s
     0     0   40.19902    0  228   51.00000   40.19902  21.2%     -    0s
     0     0   40.20060    0  233   51.00000   40.20060  21.2%     -    0s
     0     0   40.20720    0  210   51.00000   40.20720  21.2%     -    0s
H    0     0                      48.0000000   40.23431  16.2%     -    0s
     0     0   40.23431    0  215   48.00000   40.23431  16.2%     -    0s
     0     0   40.23431    0  228   48.00000   40.23431  16.2%     -    0s
     0     0   40.23431    0  204   48.00000   40.23431  16.2%     -    0s
H    0     0                      47.0000000   40.23431  14.4%     -    0s
H    0     0                      46.0000000   40.23431  12.5%     -    0s
H    0     0                      45.0000000   40.23431  10.6%     -    0s
     0     2   40.23431    0  198   45.00000   40.23431  10.6%     -    0s
H   78    41                      44.0000000   40.37857  8.23%  57.2    1s
   723   428   43.00000   22   44   44.00000   42.00000  4.55%  78.8    5s
  2165   494   43.00000   43   20   44.00000   43.00000  2.27%  55.8   10s
  4361   596   43.00000   33   44   44.00000   43.00000  2.27%  46.1   15s
  6205   680   43.00000   18  121   44.00000   43.00000  2.27%  46.9   20s
  8130   952   43.00000   46   54   44.00000   43.00000  2.27%  45.6   25s
 10038  1029   43.00000   25  146   44.00000   43.00000  2.27%  46.2   30s
 10203  1057   43.00000   29  204   44.00000   43.00000  2.27%  46.2   35s
 10484  1089   43.00000   33   45   44.00000   43.00000  2.27%  48.3   40s
 11805   781   43.00000   56   28   44.00000   43.00000  2.27%  47.5   45s
 13406   410   43.00000   62   17   44.00000   43.00000  2.27%  47.4   50s
 15412   494   43.00000   51   56   44.00000   43.00000  2.27%  47.1   55s
 17216   389 infeasible   59        44.00000   43.00000  2.27%  47.6   60s
 19216   300   43.00000   52   34   44.00000   43.00000  2.27%  48.0   65s
 21051   286   43.00000   38   67   44.00000   43.00000  2.27%  48.3   70s
 22924   300 infeasible   42        44.00000   43.00000  2.27%  49.1   75s
 24669   306   43.00000   49   58   44.00000   43.00000  2.27%  49.9   80s
 26524   319   43.00000   46   37   44.00000   43.00000  2.27%  50.5   85s
 28441   297   43.00000   46   70   44.00000   43.00000  2.27%  50.9   90s
 30380   307   43.00000   45   69   44.00000   43.00000  2.27%  51.1   95s
 32382   316   43.00000   47   42   44.00000   43.00000  2.27%  51.3  100s
 34310   325   43.00000   45   55   44.00000   43.00000  2.27%  51.5  105s
 36324   351   43.00000   50   39   44.00000   43.00000  2.27%  51.5  110s
 38138   328     cutoff   58        44.00000   43.00000  2.27%  51.8  115s
 39623   331   43.00000   51   43   44.00000   43.00000  2.27%  52.2  120s
 41453   325   43.00000   48   42   44.00000   43.00000  2.27%  52.4  125s
 43422   304   43.00000   45   42   44.00000   43.00000  2.27%  52.5  130s
 45337   302   43.00000   43   83   44.00000   43.00000  2.27%  52.7  135s
 47365   337   43.00000   49   34   44.00000   43.00000  2.27%  52.6  140s
 49114   311   43.00000   49   98   44.00000   43.00000  2.27%  52.8  145s
 50740   260     cutoff   40        44.00000   43.00000  2.27%  53.3  150s
 52308   242   43.00000   48   72   44.00000   43.00000  2.27%  53.6  155s
 54233   281   43.00000   46   52   44.00000   43.00000  2.27%  53.8  160s
 56198   280   43.00000   45   72   44.00000   43.00000  2.27%  53.9  165s
 58187   275     cutoff   52        44.00000   43.00000  2.27%  53.7  170s
 60186   257   43.00000   51   40   44.00000   43.00000  2.27%  53.6  175s
 62144   251   43.00000   53   52   44.00000   43.00000  2.27%  53.6  180s
 63996   247   43.00000   48   34   44.00000   43.00000  2.27%  53.7  185s
 65890   260   43.00000   47   30   44.00000   43.00000  2.27%  53.6  190s
 67630   252   43.00000   47   74   44.00000   43.00000  2.27%  53.9  195s
 69524   242   43.00000   47   32   44.00000   43.00000  2.27%  54.0  200s
 71274   233   43.00000   44   55   44.00000   43.00000  2.27%  54.0  205s
 72956   242   43.00000   51   26   44.00000   43.00000  2.27%  54.4  210s
 74700   232   43.00000   35   80   44.00000   43.00000  2.27%  54.6  215s
 76544   239   43.00000   41   76   44.00000   43.00000  2.27%  54.6  220s
 78239   255   43.00000   41   81   44.00000   43.00000  2.27%  54.7  225s
 80055   261   43.00000   47   49   44.00000   43.00000  2.27%  54.8  230s
 81928   292     cutoff   45        44.00000   43.00000  2.27%  54.8  235s
 83464   295   43.00000   55   41   44.00000   43.00000  2.27%  54.9  240s
 85324   247   43.00000   45   93   44.00000   43.00000  2.27%  54.9  245s
 87168   284   43.00000   52  107   44.00000   43.00000  2.27%  55.0  250s
 88921   262     cutoff   37        44.00000   43.00000  2.27%  55.2  255s
 90419   326   43.00000   51  106   44.00000   43.00000  2.27%  55.3  260s
 91940   357     cutoff   53        44.00000   43.00000  2.27%  55.6  265s
 93314   393   43.00000   44   37   44.00000   43.00000  2.27%  55.9  270s
 95180   453   43.00000   53   54   44.00000   43.00000  2.27%  55.9  275s
 97414   442   43.00000   51   58   44.00000   43.00000  2.27%  55.7  280s
 99385   400     cutoff   57        44.00000   43.00000  2.27%  55.6  285s
 101137   415   43.00000   54   77   44.00000   43.00000  2.27%  55.6  290s
 102540   377     cutoff   49        44.00000   43.00000  2.27%  56.0  295s
 104143   414     cutoff   47        44.00000   43.00000  2.27%  56.1  300s
 105902   430   43.00000   41  110   44.00000   43.00000  2.27%  56.1  305s
 107430   446   43.00000   46   74   44.00000   43.00000  2.27%  56.3  310s
 109092   430     cutoff   51        44.00000   43.00000  2.27%  56.5  315s
 110808   449   43.00000   44   61   44.00000   43.00000  2.27%  56.5  320s
 112614   424     cutoff   39        44.00000   43.00000  2.27%  56.7  325s
 114105   440     cutoff   52        44.00000   43.00000  2.27%  56.8  330s
 115844   434   43.00000   49   59   44.00000   43.00000  2.27%  57.0  335s
 117667   439   43.00000   49   72   44.00000   43.00000  2.27%  57.0  340s
 119403   450   43.00000   44   38   44.00000   43.00000  2.27%  57.1  345s
 121124   424   43.00000   63   34   44.00000   43.00000  2.27%  57.2  350s
 122491   455   43.00000   43   70   44.00000   43.00000  2.27%  57.2  355s
 124158   460   43.00000   44   89   44.00000   43.00000  2.27%  57.3  360s
 125855   443   43.00000   50   39   44.00000   43.00000  2.27%  57.4  365s
 127687   500   43.00000   60   43   44.00000   43.00000  2.27%  57.4  370s
 129645   473     cutoff   55        44.00000   43.00000  2.27%  57.4  375s
 131574   482   43.00000   61   65   44.00000   43.00000  2.27%  57.3  380s
 133571   456   43.00000   52   66   44.00000   43.00000  2.27%  57.3  385s
 135499   446   43.00000   53   87   44.00000   43.00000  2.27%  57.3  390s
 137340   441   43.00000   46   69   44.00000   43.00000  2.27%  57.3  395s
 139139   414   43.00000   45   85   44.00000   43.00000  2.27%  57.4  400s
 141079   412   43.00000   45   41   44.00000   43.00000  2.27%  57.3  405s
 142915   445   43.00000   42   62   44.00000   43.00000  2.27%  57.4  410s
 144654   442     cutoff   53        44.00000   43.00000  2.27%  57.5  415s
 146456   446   43.00000   55   36   44.00000   43.00000  2.27%  57.5  420s
 148254   441   43.00000   43   58   44.00000   43.00000  2.27%  57.5  425s
 150184   441     cutoff   45        44.00000   43.00000  2.27%  57.6  430s
 151828   380   43.00000   32   73   44.00000   43.00000  2.27%  57.7  435s
 152998   447   43.00000   41   21   44.00000   43.00000  2.27%  57.9  440s
 154642   508   43.00000   51   28   44.00000   43.00000  2.27%  58.1  445s
 156411   432   43.00000   46   49   44.00000   43.00000  2.27%  58.2  450s
 158136   387   43.00000   29  113   44.00000   43.00000  2.27%  58.3  455s
 159532   386     cutoff   46        44.00000   43.00000  2.27%  58.5  460s
 160765   383   43.00000   53  116   44.00000   43.00000  2.27%  58.6  465s
 162174   372   43.00000   47   72   44.00000   43.00000  2.27%  58.8  470s
 163600   348   43.00000   36  120   44.00000   43.00000  2.27%  59.0  475s
 165330   352   43.00000   54   42   44.00000   43.00000  2.27%  59.0  480s
 166912   375   43.00000   59   32   44.00000   43.00000  2.27%  59.0  485s
 168595   366   43.00000   46   80   44.00000   43.00000  2.27%  59.0  490s
 170520   365   43.00000   47   87   44.00000   43.00000  2.27%  59.0  495s
 172162   369   43.00000   43   72   44.00000   43.00000  2.27%  59.1  500s
 173995   412   43.00004   61   50   44.00000   43.00000  2.27%  59.0  505s
 175744   357     cutoff   44        44.00000   43.00000  2.27%  59.0  510s
 177117   345     cutoff   47        44.00000   43.00000  2.27%  59.2  515s
 178598   303     cutoff   59        44.00000   43.00000  2.27%  59.3  520s
 180058   267   43.00000   40  121   44.00000   43.00000  2.27%  59.5  525s
 181383   249     cutoff   46        44.00000   43.00000  2.27%  59.7  530s
 183094   249     cutoff   52        44.00000   43.00000  2.27%  59.7  535s
 184922   233     cutoff   58        44.00000   43.00000  2.27%  59.7  540s
 186695   215     cutoff   53        44.00000   43.00000  2.27%  59.7  545s
 188169   182   43.00000   46   69   44.00000   43.00000  2.27%  59.8  550s
 189787   212   43.00000   47    7   44.00000   43.00000  2.27%  59.9  555s
 191327   252     cutoff   66        44.00000   43.00000  2.27%  60.0  560s
 192951   241     cutoff   53        44.00000   43.00000  2.27%  60.0  565s
 194536   290     cutoff   53        44.00000   43.00000  2.27%  60.1  570s
 196316   261   43.00000   52   82   44.00000   43.00000  2.27%  60.1  575s
 197890   218   43.00000   53   33   44.00000   43.00000  2.27%  60.2  580s
 199453   236     cutoff   53        44.00000   43.00000  2.27%  60.3  585s
 200963   194     cutoff   53        44.00000   43.00000  2.27%  60.5  590s
 202337   194     cutoff   51        44.00000   43.00000  2.27%  60.6  595s
 204119   227   43.00000   43   78   44.00000   43.00000  2.27%  60.6  600s
 205618   263     cutoff   51        44.00000   43.00000  2.27%  60.7  605s
 207527   420   43.00000   59   70   44.00000   43.00000  2.27%  60.6  610s
 209322   305   43.00000   47  102   44.00000   43.00000  2.27%  60.6  615s
 211124   242     cutoff   58        44.00000   43.00000  2.27%  60.6  620s
 212742   228     cutoff   62        44.00000   43.00000  2.27%  60.6  625s
 214408   211   43.00000   44   27   44.00000   43.00000  2.27%  60.7  630s
 216237   228   43.00000   56   22   44.00000   43.00000  2.27%  60.7  635s
 217920   215   43.00000   47   77   44.00000   43.00000  2.27%  60.6  640s
 219536   207   43.00000   48   88   44.00000   43.00000  2.27%  60.7  645s
 221165   238   43.00000   49   49   44.00000   43.00000  2.27%  60.7  650s
 222859   216   43.00000   56  111   44.00000   43.00000  2.27%  60.8  655s
 224504   226   43.00000   49  108   44.00000   43.00000  2.27%  60.8  660s
 226129   169     cutoff   63        44.00000   43.00000  2.27%  60.9  665s
 227618    78   43.00000   35  122   44.00000   43.00000  2.27%  61.0  670s

Cutting planes:
  Gomory: 7
  Lift-and-project: 7
  Cover: 86
  Implied bound: 74
  Clique: 4
  MIR: 247
  Mixing: 9
  Flow cover: 287
  GUB cover: 48
  Inf proof: 4
  Zero half: 41
  RLT: 106
  Relax-and-lift: 20
  BQP: 45

Explored 228532 nodes (13974545 simplex iterations) in 673.54 seconds (480.48 work units)
Thread count was 1 (of 16 available processors)

Solution count 10: 44 44 45 ... 57

Optimal solution found (tolerance 1.00e-04)
Best objective 4.400000000000e+01, best bound 4.400000000000e+01, gap 0.0000%

User-callback calls 705939, time in user-callback 0.79 sec

 sepatime0 0 0
44.0Stat(MathOptInterface.OPTIMAL, 44.0, 44.0, 0.0, 0.0, 1.803575, 673.5451290607452, 228532, Main.CFLG.LEFPAD, "", #undef)
